p tw 100 13501 2 
1 3 
1 4 
1 5 
1 6 
1 7 
1 8 
1 9 
1 10 
1 11 
1 19 
1 21 
1 30 
1 31 
1 37 
1 41 
1 46 
1 51 
1 55 
1 61 
1 64 
1 71 
1 73 
1 81 
1 82 
1 91 
1 98 
2 3 
2 4 
2 5 
2 6 
2 7 
2 8 
2 9 
2 10 
2 12 
2 15 
2 22 
2 24 
2 32 
2 40 
2 42 
2 48 
2 52 
2 53 
2 62 
2 69 
2 72 
2 76 
2 82 
2 87 
2 91 
2 92 
3 4 
3 5 
3 6 
3 7 
3 8 
3 9 
3 10 
3 13 
3 16 
3 23 
3 29 
3 33 
3 34 
3 42 
3 43 
3 53 
3 58 
3 61 
3 63 
3 73 
3 77 
3 83 
3 85 
3 93 
3 100 
4 5 
4 6 
4 7 
4 8 
4 9 
4 10 
4 14 
4 18 
4 22 
4 24 
4 33 
4 34 
4 41 
4 44 
4 54 
4 59 
4 64 
4 66 
4 74 
4 75 
4 84 
4 90 
4 94 
4 97 
5 6 
5 7 
5 8 
5 9 
5 10 
5 14 
5 15 
5 23 
5 25 
5 32 
5 35 
5 45 
5 47 
5 51 
5 55 
5 65 
5 70 
5 75 
5 78 
5 85 
5 89 
5 95 
5 96 
6 7 
6 8 
6 9 
6 10 
6 16 
6 20 
6 25 
6 26 
6 36 
6 39 
6 43 
6 46 
6 52 
6 56 
6 66 
6 67 
6 71 
6 76 
6 86 
6 88 
6 94 
6 96 
7 8 
7 9 
7 10 
7 11 
7 17 
7 27 
7 28 
7 35 
7 37 
7 44 
7 47 
7 57 
7 60 
7 62 
7 67 
7 77 
7 79 
7 86 
7 87 
7 93 
7 97 
8 9 
8 10 
8 12 
8 18 
8 26 
8 28 
8 31 
8 38 
8 45 
8 48 
8 57 
8 58 
8 63 
8 68 
8 78 
8 80 
8 84 
8 88 
8 98 
8 99 
9 10 
9 13 
9 19 
9 27 
9 29 
9 36 
9 39 
9 49 
9 50 
9 54 
9 59 
9 68 
9 69 
9 72 
9 79 
9 81 
9 89 
9 95 
9 99 
10 17 
10 20 
10 21 
10 30 
10 38 
10 40 
10 49 
10 50 
10 56 
10 60 
10 65 
10 70 
10 74 
10 80 
10 83 
10 90 
10 92 
10 100 
11 12 
11 13 
11 14 
11 15 
11 16 
11 17 
11 18 
11 19 
11 20 
11 21 
11 28 
11 31 
11 35 
11 41 
11 44 
11 51 
11 60 
11 61 
11 62 
11 71 
11 79 
11 81 
11 86 
11 91 
11 93 
12 13 
12 14 
12 15 
12 16 
12 17 
12 18 
12 19 
12 20 
12 22 
12 26 
12 31 
12 32 
12 42 
12 45 
12 52 
12 57 
12 62 
12 63 
12 72 
12 80 
12 82 
12 84 
12 92 
12 99 
13 14 
13 15 
13 16 
13 17 
13 18 
13 19 
13 20 
13 23 
13 27 
13 33 
13 36 
13 43 
13 50 
13 53 
13 54 
13 63 
13 68 
13 72 
13 73 
13 81 
13 83 
13 93 
13 95 
14 15 
14 16 
14 17 
14 18 
14 19 
14 20 
14 23 
14 24 
14 32 
14 34 
14 44 
14 47 
14 51 
14 54 
14 64 
14 70 
14 74 
14 78 
14 84 
14 89 
14 94 
14 96 
15 16 
15 17 
15 18 
15 19 
15 20 
15 24 
15 25 
15 35 
15 40 
15 45 
15 48 
15 53 
15 55 
15 65 
15 69 
15 75 
15 76 
15 85 
15 87 
15 91 
15 95 
16 17 
16 18 
16 19 
16 20 
16 26 
16 29 
16 34 
16 36 
16 42 
16 46 
16 56 
16 58 
16 61 
16 66 
16 76 
16 77 
16 85 
16 86 
16 96 
16 100 
17 18 
17 19 
17 20 
17 21 
17 27 
17 37 
17 38 
17 47 
17 49 
17 56 
17 57 
17 65 
17 67 
17 74 
17 77 
17 83 
17 87 
17 92 
17 97 
18 19 
18 20 
18 22 
18 28 
18 33 
18 38 
18 41 
18 48 
18 58 
18 59 
18 66 
18 68 
18 75 
18 78 
18 88 
18 90 
18 97 
18 98 
19 20 
19 29 
19 30 
19 37 
19 39 
19 46 
19 49 
19 55 
19 59 
19 64 
19 69 
19 73 
19 79 
19 82 
19 89 
19 98 
19 99 
20 25 
20 30 
20 39 
20 40 
20 43 
20 50 
20 52 
20 60 
20 67 
20 70 
20 71 
20 80 
20 88 
20 90 
20 94 
20 100 
21 22 
21 23 
21 24 
21 25 
21 26 
21 27 
21 28 
21 29 
21 30 
21 31 
21 38 
21 41 
21 49 
21 51 
21 56 
21 61 
21 65 
21 71 
21 74 
21 81 
21 83 
21 91 
21 92 
22 23 
22 24 
22 25 
22 26 
22 27 
22 28 
22 29 
22 30 
22 32 
22 33 
22 41 
22 42 
22 52 
22 59 
22 62 
22 66 
22 72 
22 75 
22 82 
22 90 
22 92 
22 97 
23 24 
23 25 
23 26 
23 27 
23 28 
23 29 
23 30 
23 32 
23 33 
23 43 
23 47 
23 51 
23 53 
23 63 
23 70 
23 73 
23 78 
23 83 
23 89 
23 93 
23 96 
24 25 
24 26 
24 27 
24 28 
24 29 
24 30 
24 34 
24 40 
24 44 
24 48 
24 53 
24 54 
24 64 
24 69 
24 74 
24 76 
24 84 
24 87 
24 91 
24 94 
25 26 
25 27 
25 28 
25 29 
25 30 
25 35 
25 39 
25 43 
25 45 
25 52 
25 55 
25 65 
25 67 
25 71 
25 75 
25 85 
25 88 
25 94 
25 95 
26 27 
26 28 
26 29 
26 30 
26 31 
26 36 
26 45 
26 46 
26 56 
26 57 
26 63 
26 66 
26 76 
26 80 
26 84 
26 86 
26 96 
26 99 
27 28 
27 29 
27 30 
27 36 
27 37 
27 47 
27 50 
27 54 
27 57 
27 67 
27 68 
27 72 
27 77 
27 81 
27 87 
27 95 
27 97 
28 29 
28 30 
28 35 
28 38 
28 44 
28 48 
28 58 
28 60 
28 62 
28 68 
28 78 
28 79 
28 86 
28 88 
28 93 
28 98 
29 30 
29 34 
29 39 
29 42 
29 49 
29 58 
29 59 
29 61 
29 69 
29 77 
29 79 
29 85 
29 89 
29 99 
29 100 
30 37 
30 40 
30 46 
30 50 
30 55 
30 60 
30 64 
30 70 
30 73 
30 80 
30 82 
30 90 
30 98 
30 100 
31 32 
31 33 
31 34 
31 35 
31 36 
31 37 
31 38 
31 39 
31 40 
31 41 
31 45 
31 51 
31 57 
31 61 
31 63 
31 71 
31 80 
31 81 
31 84 
31 91 
31 99 
32 33 
32 34 
32 35 
32 36 
32 37 
32 38 
32 39 
32 40 
32 42 
32 47 
32 51 
32 52 
32 62 
32 70 
32 72 
32 78 
32 82 
32 89 
32 92 
32 96 
33 34 
33 35 
33 36 
33 37 
33 38 
33 39 
33 40 
33 41 
33 43 
33 53 
33 59 
33 63 
33 66 
33 73 
33 75 
33 83 
33 90 
33 93 
33 97 
34 35 
34 36 
34 37 
34 38 
34 39 
34 40 
34 42 
34 44 
34 54 
34 58 
34 61 
34 64 
34 74 
34 77 
34 84 
34 85 
34 94 
34 100 
35 36 
35 37 
35 38 
35 39 
35 40 
35 44 
35 45 
35 55 
35 60 
35 62 
35 65 
35 75 
35 79 
35 85 
35 86 
35 93 
35 95 
36 37 
36 38 
36 39 
36 40 
36 46 
36 50 
36 54 
36 56 
36 66 
36 68 
36 72 
36 76 
36 81 
36 86 
36 95 
36 96 
37 38 
37 39 
37 40 
37 46 
37 47 
37 55 
37 57 
37 64 
37 67 
37 73 
37 77 
37 82 
37 87 
37 97 
37 98 
38 39 
38 40 
38 48 
38 49 
38 56 
38 58 
38 65 
38 68 
38 74 
38 78 
38 83 
38 88 
38 92 
38 98 
39 40 
39 43 
39 49 
39 52 
39 59 
39 67 
39 69 
39 71 
39 79 
39 88 
39 89 
39 94 
39 99 
40 48 
40 50 
40 53 
40 60 
40 69 
40 70 
40 76 
40 80 
40 87 
40 90 
40 91 
40 100 
41 42 
41 43 
41 44 
41 45 
41 46 
41 47 
41 48 
41 49 
41 50 
41 51 
41 59 
41 61 
41 66 
41 71 
41 75 
41 81 
41 90 
41 91 
41 97 
42 43 
42 44 
42 45 
42 46 
42 47 
42 48 
42 49 
42 50 
42 52 
42 58 
42 61 
42 62 
42 72 
42 77 
42 82 
42 85 
42 92 
42 100 
43 44 
43 45 
43 46 
43 47 
43 48 
43 49 
43 50 
43 52 
43 53 
43 63 
43 67 
43 71 
43 73 
43 83 
43 88 
43 93 
43 94 
44 45 
44 46 
44 47 
44 48 
44 49 
44 50 
44 54 
44 60 
44 62 
44 64 
44 74 
44 79 
44 84 
44 86 
44 93 
44 94 
45 46 
45 47 
45 48 
45 49 
45 50 
45 55 
45 57 
45 63 
45 65 
45 75 
45 80 
45 84 
45 85 
45 95 
45 99 
46 47 
46 48 
46 49 
46 50 
46 55 
46 56 
46 64 
46 66 
46 73 
46 76 
46 82 
46 86 
46 96 
46 98 
47 48 
47 49 
47 50 
47 51 
47 57 
47 67 
47 70 
47 77 
47 78 
47 87 
47 89 
47 96 
47 97 
48 49 
48 50 
48 53 
48 58 
48 68 
48 69 
48 76 
48 78 
48 87 
48 88 
48 91 
48 98 
49 50 
49 56 
49 59 
49 65 
49 69 
49 74 
49 79 
49 83 
49 89 
49 92 
49 99 
50 54 
50 60 
50 68 
50 70 
50 72 
50 80 
50 81 
50 90 
50 95 
50 100 
51 52 
51 53 
51 54 
51 55 
51 56 
51 57 
51 58 
51 59 
51 60 
51 61 
51 70 
51 71 
51 78 
51 81 
51 89 
51 91 
51 96 
52 53 
52 54 
52 55 
52 56 
52 57 
52 58 
52 59 
52 60 
52 62 
52 67 
52 71 
52 72 
52 82 
52 88 
52 92 
52 94 
53 54 
53 55 
53 56 
53 57 
53 58 
53 59 
53 60 
53 63 
53 69 
53 73 
53 76 
53 83 
53 87 
53 91 
53 93 
54 55 
54 56 
54 57 
54 58 
54 59 
54 60 
54 64 
54 68 
54 72 
54 74 
54 81 
54 84 
54 94 
54 95 
55 56 
55 57 
55 58 
55 59 
55 60 
55 64 
55 65 
55 73 
55 75 
55 82 
55 85 
55 95 
55 98 
56 57 
56 58 
56 59 
56 60 
56 65 
56 66 
56 74 
56 76 
56 83 
56 86 
56 92 
56 96 
57 58 
57 59 
57 60 
57 63 
57 67 
57 77 
57 80 
57 84 
57 87 
57 97 
57 99 
58 59 
58 60 
58 61 
58 68 
58 77 
58 78 
58 85 
58 88 
58 98 
58 100 
59 60 
59 66 
59 69 
59 75 
59 79 
59 89 
59 90 
59 97 
59 99 
60 62 
60 70 
60 79 
60 80 
60 86 
60 90 
60 93 
60 100 
61 62 
61 63 
61 64 
61 65 
61 66 
61 67 
61 68 
61 69 
61 70 
61 71 
61 77 
61 81 
61 85 
61 91 
61 100 
62 63 
62 64 
62 65 
62 66 
62 67 
62 68 
62 69 
62 70 
62 72 
62 79 
62 82 
62 86 
62 92 
62 93 
63 64 
63 65 
63 66 
63 67 
63 68 
63 69 
63 70 
63 73 
63 80 
63 83 
63 84 
63 93 
63 99 
64 65 
64 66 
64 67 
64 68 
64 69 
64 70 
64 73 
64 74 
64 82 
64 84 
64 94 
64 98 
65 66 
65 67 
65 68 
65 69 
65 70 
65 74 
65 75 
65 83 
65 85 
65 92 
65 95 
66 67 
66 68 
66 69 
66 70 
66 75 
66 76 
66 86 
66 90 
66 96 
66 97 
67 68 
67 69 
67 70 
67 71 
67 77 
67 87 
67 88 
67 94 
67 97 
68 69 
68 70 
68 72 
68 78 
68 81 
68 88 
68 95 
68 98 
69 70 
69 76 
69 79 
69 87 
69 89 
69 91 
69 99 
70 78 
70 80 
70 89 
70 90 
70 96 
70 100 
71 72 
71 73 
71 74 
71 75 
71 76 
71 77 
71 78 
71 79 
71 80 
71 81 
71 88 
71 91 
71 94 
72 73 
72 74 
72 75 
72 76 
72 77 
72 78 
72 79 
72 80 
72 81 
72 82 
72 92 
72 95 
73 74 
73 75 
73 76 
73 77 
73 78 
73 79 
73 80 
73 82 
73 83 
73 93 
73 98 
74 75 
74 76 
74 77 
74 78 
74 79 
74 80 
74 83 
74 84 
74 92 
74 94 
75 76 
75 77 
75 78 
75 79 
75 80 
75 85 
75 90 
75 95 
75 97 
76 77 
76 78 
76 79 
76 80 
76 86 
76 87 
76 91 
76 96 
77 78 
77 79 
77 80 
77 85 
77 87 
77 97 
77 100 
78 79 
78 80 
78 88 
78 89 
78 96 
78 98 
79 80 
79 86 
79 89 
79 93 
79 99 
80 84 
80 90 
80 99 
80 100 
81 82 
81 83 
81 84 
81 85 
81 86 
81 87 
81 88 
81 89 
81 90 
81 91 
81 95 
82 83 
82 84 
82 85 
82 86 
82 87 
82 88 
82 89 
82 90 
82 92 
82 98 
83 84 
83 85 
83 86 
83 87 
83 88 
83 89 
83 90 
83 92 
83 93 
84 85 
84 86 
84 87 
84 88 
84 89 
84 90 
84 94 
84 99 
85 86 
85 87 
85 88 
85 89 
85 90 
85 95 
85 100 
86 87 
86 88 
86 89 
86 90 
86 93 
86 96 
87 88 
87 89 
87 90 
87 91 
87 97 
88 89 
88 90 
88 94 
88 98 
89 90 
89 96 
89 99 
90 97 
90 100 
91 92 
91 93 
91 94 
91 95 
91 96 
91 97 
91 98 
91 99 
91 100 
92 93 
92 94 
92 95 
92 96 
92 97 
92 98 
92 99 
92 100 
93 94 
93 95 
93 96 
93 97 
93 98 
93 99 
93 100 
94 95 
94 96 
94 97 
94 98 
94 99 
94 100 
95 96 
95 97 
95 98 
95 99 
95 100 
96 97 
96 98 
96 99 
96 100 
97 98 
97 99 
97 100 
98 99 
98 100 
99 100 
